CPXPARAM_TimeLimit                               7200
CPXPARAM_Read_DataCheck                          1
Parallel mode: deterministic, using up to 8 threads for concurrent optimization.
Tried aggregator 1 time.
LP Presolve eliminated 89 rows and 0 columns.
Reduced LP has 10021 rows, 1801 columns, and 29267 nonzeros.
Presolve time = 0.00 sec. (4.49 ticks)

Iteration log . . .
Iteration:     1   Dual objective     =           911.000000
Perturbation started.
Iteration:   214   Dual objective     =           911.000000
Initializing dual steep norms . . .
Iteration:   215   Dual objective     =           911.000150
Iteration:   494   Dual objective     =           911.014119
Iteration:   686   Dual objective     =           911.015224
Iteration:   921   Dual objective     =           911.015761
Iteration:  1117   Dual objective     =           911.016074
Iteration:  1307   Dual objective     =           911.016687
Iteration:  1562   Dual objective     =           911.016751
Iteration:  1848   Dual objective     =           911.016833
Iteration:  2063   Dual objective     =           911.016891
Iteration:  2328   Dual objective     =           911.017759
Iteration:  2516   Dual objective     =           911.017843
Iteration:  2749   Dual objective     =           911.017870
Removing perturbation.

Dual simplex solved model.

